NAME : mtspf.pid18260.gtsp.295279189.tour
COMMENT : Length = 295279189
COMMENT : Found by LKH [Keld Helsgaun] Sat Jan  4 22:56:32 2025
TYPE : TOUR
DIMENSION : 175
TOUR_SECTION
1
77
78
79
76
136
137
138
139
13
14
37
38
39
36
58
59
56
57
10
22
23
20
21
130
131
128
129
15
109
110
111
108
152
153
154
155
8
106
107
104
105
9
161
162
163
160
146
147
144
145
43
40
41
42
170
171
168
169
74
75
72
73
54
55
52
53
96
97
98
99
5
172
173
174
175
4
29
30
31
28
125
126
127
124
94
95
92
93
27
24
25
26
86
87
84
85
12
157
158
159
156
135
132
133
134
32
33
34
35
65
66
67
64
82
83
80
81
6
7
50
51
48
49
90
91
88
89
2
3
121
122
123
120
70
71
68
69
11
165
166
167
164
119
116
117
118
61
62
63
60
17
18
19
16
151
148
149
150
103
100
101
102
44
45
46
47
115
112
113
114
143
140
141
142
-1
EOF
